26326
1 0 1 0 1 1 1 0 0 0 0 1 0 0 1 0 0 0 0 0 1 0 0 0 0 0 0 0 0 0 
20 0 6 2 6 5 0 5 4 14 4 20 4 20 0 20 11 11 5 11 2 0 4 0 4 20 2 11 5 4 4 5 6 4 20 20 11 5 0 11 0 20 11 6 11 11 0 20 11 20 4 2 20 5 6 20 11 0 0 14 0 5 20 0 11 11 4 0 4 4 6 6 11 11 11 20 4 20 2 4 20 0 20 14 0 14 11 0 20 4 2 5 11 0 0 5 2 6 0 6 4 0 11 11 2 5 0 0 20 20 14 2 2 11 11 4 11 11 11 5 5 4 5 20 6 4 5 4 4 4 14 4 11 4 4 20 4 5 20 14 11 20 20 20 20 4 11 5 20 5 